sat
( (oldx_init 1)
  (x_init 0)
  (y_init 0)
  (c_0 (- 10))
  (c_1 1)
  (c_2 0)
  (c_3 0)
  (c_4 0)
  (c_5 0)
  (c_6 1)
  (c_7 1)
  (c_8 0)
  (c_9 0)
  (c_10 0)
  (c_11 (- 3))
  (c_12 0)
  (c_13 0)
  (c_14 (- 1))
  (c_15 0) )
